c Reduced graph for GEOM100_1 generated by Cyril Grelier
p edge 95 516
v 1 10
v 2 10
v 3 10
v 4 10
v 5 10
v 6 10
v 7 10
v 8 10
v 9 10
v 10 10
v 11 10
v 12 10
v 13 10
v 14 10
v 15 10
v 16 9
v 17 9
v 18 9
v 19 9
v 20 9
v 21 9
v 22 9
v 23 9
v 24 8
v 25 8
v 26 8
v 27 8
v 28 8
v 29 8
v 30 8
v 31 7
v 32 7
v 33 7
v 34 7
v 35 7
v 36 7
v 37 7
v 38 7
v 39 7
v 40 7
v 41 7
v 42 6
v 43 6
v 44 6
v 45 6
v 46 6
v 47 6
v 48 6
v 49 6
v 50 6
v 51 6
v 52 5
v 53 5
v 54 5
v 55 5
v 56 5
v 57 5
v 58 5
v 59 5
v 60 5
v 61 5
v 62 5
v 63 5
v 64 5
v 65 5
v 66 5
v 67 5
v 68 4
v 69 4
v 70 4
v 71 4
v 72 4
v 73 4
v 74 4
v 75 3
v 76 3
v 77 3
v 78 3
v 79 3
v 80 3
v 81 3
v 82 3
v 83 3
v 84 3
v 85 2
v 86 2
v 87 2
v 88 2
v 89 2
v 90 1
v 91 1
v 92 1
v 93 1
v 94 1
v 95 1
e 1 25
e 1 33
e 1 42
e 1 44
e 1 52
e 1 54
e 1 55
e 1 61
e 1 62
e 1 70
e 1 73
e 1 76
e 1 78
e 1 85
e 2 16
e 2 17
e 2 19
e 2 24
e 2 28
e 2 31
e 2 32
e 2 45
e 2 56
e 2 58
e 2 60
e 2 87
e 2 91
e 2 94
e 3 4
e 3 9
e 3 10
e 3 36
e 3 37
e 3 47
e 3 69
e 3 74
e 3 82
e 3 89
e 3 92
e 3 93
e 4 9
e 4 21
e 4 30
e 4 37
e 4 65
e 4 69
e 4 71
e 4 81
e 4 82
e 4 92
e 4 93
e 5 9
e 5 18
e 5 20
e 5 27
e 5 36
e 5 43
e 5 50
e 5 69
e 5 80
e 5 84
e 5 93
e 6 12
e 6 13
e 6 23
e 6 41
e 6 51
e 6 53
e 6 54
e 6 55
e 6 67
e 6 79
e 7 14
e 7 15
e 7 16
e 7 32
e 7 35
e 7 59
e 7 75
e 7 77
e 7 90
e 7 91
e 8 11
e 8 22
e 8 29
e 8 34
e 8 39
e 8 40
e 8 57
e 8 64
e 8 88
e 8 95
e 9 36
e 9 37
e 9 69
e 9 81
e 9 82
e 9 92
e 9 93
e 10 36
e 10 40
e 10 47
e 10 49
e 10 57
e 10 74
e 10 88
e 10 89
e 11 22
e 11 29
e 11 34
e 11 39
e 11 57
e 11 63
e 11 64
e 11 95
e 12 13
e 12 23
e 12 41
e 12 53
e 12 67
e 12 79
e 12 83
e 13 23
e 13 41
e 13 53
e 13 67
e 13 79
e 13 83
e 14 15
e 14 35
e 14 59
e 14 75
e 14 77
e 14 90
e 15 32
e 15 35
e 15 77
e 15 90
e 16 17
e 16 24
e 16 31
e 16 32
e 16 35
e 16 45
e 16 59
e 16 68
e 16 75
e 16 77
e 16 85
e 16 90
e 16 91
e 17 24
e 17 31
e 17 33
e 17 52
e 17 59
e 17 68
e 17 75
e 17 77
e 17 85
e 17 90
e 17 91
e 18 20
e 18 26
e 18 27
e 18 36
e 18 42
e 18 43
e 18 53
e 18 80
e 18 83
e 18 84
e 18 86
e 19 24
e 19 28
e 19 31
e 19 45
e 19 46
e 19 56
e 19 58
e 19 60
e 19 72
e 19 87
e 19 94
e 20 26
e 20 27
e 20 43
e 20 53
e 20 79
e 20 80
e 20 83
e 20 84
e 20 86
e 21 30
e 21 37
e 21 50
e 21 65
e 21 71
e 21 81
e 21 92
e 22 29
e 22 34
e 22 39
e 22 63
e 22 64
e 22 95
e 23 41
e 23 67
e 24 28
e 24 31
e 24 32
e 24 45
e 24 56
e 24 60
e 24 68
e 24 75
e 24 77
e 24 85
e 24 87
e 24 90
e 24 91
e 25 26
e 25 33
e 25 42
e 25 44
e 25 52
e 25 54
e 25 55
e 25 61
e 25 62
e 25 70
e 25 73
e 25 76
e 25 78
e 25 86
e 26 27
e 26 42
e 26 43
e 26 44
e 26 51
e 26 53
e 26 54
e 26 55
e 26 76
e 26 79
e 26 80
e 26 86
e 27 36
e 27 42
e 27 43
e 27 44
e 27 76
e 27 80
e 27 86
e 28 31
e 28 32
e 28 45
e 28 56
e 28 58
e 28 60
e 28 87
e 28 94
e 29 34
e 29 39
e 29 63
e 29 64
e 29 95
e 30 65
e 30 71
e 30 81
e 30 92
e 31 32
e 31 45
e 31 56
e 31 58
e 31 60
e 31 68
e 31 72
e 31 75
e 31 85
e 31 87
e 31 90
e 31 91
e 32 35
e 32 45
e 32 60
e 32 75
e 32 77
e 32 90
e 32 91
e 33 38
e 33 52
e 33 54
e 33 61
e 33 66
e 33 68
e 33 70
e 33 73
e 33 76
e 33 78
e 33 85
e 34 39
e 34 40
e 34 57
e 34 63
e 34 64
e 34 88
e 34 95
e 35 59
e 35 68
e 35 75
e 35 77
e 35 90
e 35 91
e 36 47
e 36 69
e 36 80
e 36 93
e 37 69
e 37 71
e 37 81
e 37 82
e 37 92
e 37 93
e 38 59
e 38 66
e 38 68
e 38 70
e 38 73
e 38 75
e 38 77
e 38 78
e 39 57
e 39 64
e 39 88
e 39 95
e 40 57
e 40 74
e 40 88
e 40 89
e 40 95
e 41 67
e 42 43
e 42 44
e 42 53
e 42 55
e 42 61
e 42 62
e 42 76
e 42 80
e 42 86
e 43 53
e 43 79
e 43 80
e 43 83
e 43 84
e 43 86
e 44 48
e 44 52
e 44 55
e 44 61
e 44 62
e 44 76
e 44 86
e 45 56
e 45 58
e 45 60
e 45 87
e 45 94
e 46 49
e 46 56
e 46 58
e 46 63
e 46 64
e 46 72
e 46 94
e 47 49
e 47 57
e 47 74
e 47 88
e 47 89
e 48 52
e 48 56
e 48 58
e 48 61
e 48 62
e 48 72
e 48 85
e 49 57
e 49 63
e 49 88
e 50 65
e 50 71
e 50 80
e 50 84
e 51 53
e 51 54
e 51 55
e 51 79
e 52 54
e 52 61
e 52 62
e 52 68
e 52 70
e 52 73
e 52 76
e 52 78
e 52 85
e 53 54
e 53 55
e 53 76
e 53 79
e 53 83
e 53 86
e 54 55
e 54 70
e 54 73
e 54 76
e 54 78
e 54 86
e 55 76
e 55 78
e 55 79
e 55 86
e 56 58
e 56 60
e 56 72
e 56 87
e 56 94
e 57 74
e 57 88
e 57 89
e 57 95
e 58 60
e 58 72
e 58 87
e 58 94
e 59 66
e 59 68
e 59 75
e 59 77
e 59 90
e 59 91
e 60 72
e 60 87
e 60 94
e 61 62
e 61 76
e 61 85
e 61 86
e 62 76
e 62 85
e 63 64
e 63 94
e 65 71
e 65 81
e 65 92
e 66 68
e 66 70
e 66 73
e 66 78
e 67 79
e 68 70
e 68 75
e 68 77
e 68 78
e 68 85
e 68 90
e 68 91
e 69 71
e 69 81
e 69 82
e 69 92
e 69 93
e 70 73
e 70 78
e 70 85
e 71 81
e 71 82
e 71 92
e 71 93
e 72 87
e 72 94
e 73 78
e 74 82
e 74 88
e 74 89
e 75 77
e 75 85
e 75 90
e 75 91
e 76 78
e 76 86
e 77 90
e 77 91
e 78 85
e 79 83
e 79 86
e 80 83
e 80 84
e 80 86
e 81 82
e 81 92
e 81 93
e 82 89
e 82 92
e 82 93
e 83 84
e 84 93
e 85 90
e 85 91
e 87 94
e 88 89
e 88 95
e 90 91
e 92 93
